5 92 122 127 141 191 71 
4 182 57 85 86 114 108 116 63 146 
184 7 18 62 80 126 70 161 195 113 66 
100 190 36 137 123 96 26 64 67 
54 12 168 151 94 189 91 95 93 149 120 77 
163 6 49 43 111 198 102 79 170 10 19 148 24 
117 165 173 139 29 160 192 115 82 97 121 175 
153 47 132 20 138 145 157 143 30 87 
140 88 69 176 109 107 81 33 187 39 110 167 
42 181 159 25 90 124 2 76 60 75 
15 16 119 98 72 74 8 185 73 27 
28 152 196 180 3 179 183 44 17 11 154 106 
133 59 89 188 166 129 41 55 83 
199 84 118 21 178 48 
142 162 14 136 150 134 105 174 13 34 1 125 
9 177 128 112 52 101 50 194 135 193 
37 31 38 32 23 22 158 
131 200 78 130 58 144 
172 197 164 104 46 186 
169 147 40 51 
56 45 99 
156 61 
53 65 
171 
103 
35 
68 
155 

